NAME:  br17 
TYPE: TSP
COMMENT: NO_COMMENT
DIMENSION:  34
EDGE_WEIGHT_TYPE: EXPLICIT
EDGE_WEIGHT_FORMAT: FULL_MATRIX
DISPLAY_DATA_TYPE: NO_DISPLAY
EDGE_WEIGHT_SECTION
  9999  9999  9999  9999  9999  9999  9999  9999  9999  9999  9999  9999  9999  9999  9999  9999  9999    -1     3     5    48    48     8     8     5     5     3     3     0     3     5     8     8     5
  9999  9999  9999  9999  9999  9999  9999  9999  9999  9999  9999  9999  9999  9999  9999  9999  9999     3    -1     3    48    48     8     8     5     5     0     0     3     0     3     8     8     5
  9999  9999  9999  9999  9999  9999  9999  9999  9999  9999  9999  9999  9999  9999  9999  9999  9999     5     3    -1    74    74    50    50    26    26     3     3     5     3     0    50    50    26
  9999  9999  9999  9999  9999  9999  9999  9999  9999  9999  9999  9999  9999  9999  9999  9999  9999    48    48    72    -1     0     6     6    12    12    48    48    48    48    72     6     6    12
  9999  9999  9999  9999  9999  9999  9999  9999  9999  9999  9999  9999  9999  9999  9999  9999  9999    48    48    72     0    -1     6     6    12    12    48    48    48    48    72     6     6    12
  9999  9999  9999  9999  9999  9999  9999  9999  9999  9999  9999  9999  9999  9999  9999  9999  9999     8     8    48     6     6    -1     0     8     8     8     8     8     8    48     0     0     8
  9999  9999  9999  9999  9999  9999  9999  9999  9999  9999  9999  9999  9999  9999  9999  9999  9999     8     8    48     6     6     0    -1     8     8     8     8     8     8    48     0     0     8
  9999  9999  9999  9999  9999  9999  9999  9999  9999  9999  9999  9999  9999  9999  9999  9999  9999     5     5    24    12    12     8     8    -1     0     5     5     5     5    24     8     8     0
  9999  9999  9999  9999  9999  9999  9999  9999  9999  9999  9999  9999  9999  9999  9999  9999  9999     5     5    24    12    12     8     8     0    -1     5     5     5     5    24     8     8     0
  9999  9999  9999  9999  9999  9999  9999  9999  9999  9999  9999  9999  9999  9999  9999  9999  9999     3     0     3    48    48     8     8     5     5    -1     0     3     0     3     8     8     5
  9999  9999  9999  9999  9999  9999  9999  9999  9999  9999  9999  9999  9999  9999  9999  9999  9999     3     0     3    48    48     8     8     5     5     0    -1     3     0     3     8     8     5
  9999  9999  9999  9999  9999  9999  9999  9999  9999  9999  9999  9999  9999  9999  9999  9999  9999     0     3     5    48    48     8     8     5     5     3     3    -1     3     5     8     8     5
  9999  9999  9999  9999  9999  9999  9999  9999  9999  9999  9999  9999  9999  9999  9999  9999  9999     3     0     3    48    48     8     8     5     5     0     0     3    -1     3     8     8     5
  9999  9999  9999  9999  9999  9999  9999  9999  9999  9999  9999  9999  9999  9999  9999  9999  9999     5     3     0    74    74    50    50    26    26     3     3     5     3    -1    50    50    26
  9999  9999  9999  9999  9999  9999  9999  9999  9999  9999  9999  9999  9999  9999  9999  9999  9999     8     8    48     6     6     0     0     8     8     8     8     8     8    48    -1     0     8
  9999  9999  9999  9999  9999  9999  9999  9999  9999  9999  9999  9999  9999  9999  9999  9999  9999     8     8    48     6     6     0     0     8     8     8     8     8     8    48     0    -1     8
  9999  9999  9999  9999  9999  9999  9999  9999  9999  9999  9999  9999  9999  9999  9999  9999  9999     5     5    24    12    12     8     8     0     0     5     5     5     5    24     8     8    -1
    -1     3     5    48    48     8     8     5     5     3     3     0     3     5     8     8     5  9999  9999  9999  9999  9999  9999  9999  9999  9999  9999  9999  9999  9999  9999  9999  9999  9999
     3    -1     3    48    48     8     8     5     5     0     0     3     0     3     8     8     5  9999  9999  9999  9999  9999  9999  9999  9999  9999  9999  9999  9999  9999  9999  9999  9999  9999
     5     3    -1    72    72    48    48    24    24     3     3     5     3     0    48    48    24  9999  9999  9999  9999  9999  9999  9999  9999  9999  9999  9999  9999  9999  9999  9999  9999  9999
    48    48    74    -1     0     6     6    12    12    48    48    48    48    74     6     6    12  9999  9999  9999  9999  9999  9999  9999  9999  9999  9999  9999  9999  9999  9999  9999  9999  9999
    48    48    74     0    -1     6     6    12    12    48    48    48    48    74     6     6    12  9999  9999  9999  9999  9999  9999  9999  9999  9999  9999  9999  9999  9999  9999  9999  9999  9999
     8     8    50     6     6    -1     0     8     8     8     8     8     8    50     0     0     8  9999  9999  9999  9999  9999  9999  9999  9999  9999  9999  9999  9999  9999  9999  9999  9999  9999
     8     8    50     6     6     0    -1     8     8     8     8     8     8    50     0     0     8  9999  9999  9999  9999  9999  9999  9999  9999  9999  9999  9999  9999  9999  9999  9999  9999  9999
     5     5    26    12    12     8     8    -1     0     5     5     5     5    26     8     8     0  9999  9999  9999  9999  9999  9999  9999  9999  9999  9999  9999  9999  9999  9999  9999  9999  9999
     5     5    26    12    12     8     8     0    -1     5     5     5     5    26     8     8     0  9999  9999  9999  9999  9999  9999  9999  9999  9999  9999  9999  9999  9999  9999  9999  9999  9999
     3     0     3    48    48     8     8     5     5    -1     0     3     0     3     8     8     5  9999  9999  9999  9999  9999  9999  9999  9999  9999  9999  9999  9999  9999  9999  9999  9999  9999
     3     0     3    48    48     8     8     5     5     0    -1     3     0     3     8     8     5  9999  9999  9999  9999  9999  9999  9999  9999  9999  9999  9999  9999  9999  9999  9999  9999  9999
     0     3     5    48    48     8     8     5     5     3     3    -1     3     5     8     8     5  9999  9999  9999  9999  9999  9999  9999  9999  9999  9999  9999  9999  9999  9999  9999  9999  9999
     3     0     3    48    48     8     8     5     5     0     0     3    -1     3     8     8     5  9999  9999  9999  9999  9999  9999  9999  9999  9999  9999  9999  9999  9999  9999  9999  9999  9999
     5     3     0    72    72    48    48    24    24     3     3     5     3    -1    48    48    24  9999  9999  9999  9999  9999  9999  9999  9999  9999  9999  9999  9999  9999  9999  9999  9999  9999
     8     8    50     6     6     0     0     8     8     8     8     8     8    50    -1     0     8  9999  9999  9999  9999  9999  9999  9999  9999  9999  9999  9999  9999  9999  9999  9999  9999  9999
     8     8    50     6     6     0     0     8     8     8     8     8     8    50     0    -1     8  9999  9999  9999  9999  9999  9999  9999  9999  9999  9999  9999  9999  9999  9999  9999  9999  9999
     5     5    26    12    12     8     8     0     0     5     5     5     5    26     8     8    -1  9999  9999  9999  9999  9999  9999  9999  9999  9999  9999  9999  9999  9999  9999  9999  9999  9999
EOF